
Cover cuts applied:  12
Implied bound cuts applied:  1
Flow cuts applied:  32
Mixed integer rounding cuts applied:  17
Zero-half cuts applied:  10
Gomory fractional cuts applied:  1

Root node processing (before b&c):
  Real time             =    0.15 sec. (123.32 ticks)
Parallel b&c, 4 threads:
  Real time             =    0.00 sec. (0.00 ticks)
  Sync time (average)   =    0.00 sec.
  Wait time (average)   =    0.00 sec.
                          ------------
Total (root+branch&cut) =    0.15 sec. (123.32 ticks)
Version identifier: 12.10.0.0 | 2019-11-26 | 843d4de
CPXPARAM_MIP_Interval                            10
CPXPARAM_MIP_Tolerances_AbsMIPGap                0.98999999999999999
Tried aggregator 2 times.
MIP Presolve eliminated 6519 rows and 4285 columns.
MIP Presolve modified 1 coefficients.
Aggregator did 83 substitutions.
Reduced MIP has 295 rows, 288 columns, and 1049 nonzeros.
Reduced MIP has 126 binaries, 162 generals, 0 SOSs, and 0 indicators.
Presolve time = 0.00 sec. (5.54 ticks)
Probing fixed 0 vars, tightened 7 bounds.
Probing changed sense of 4 constraints.
Probing time = 0.00 sec. (0.06 ticks)
Tried aggregator 1 time.
Detecting symmetries...
MIP Presolve eliminated 7 rows and 6 columns.
MIP Presolve modified 9 coefficients.
Reduced MIP has 288 rows, 282 columns, and 1024 nonzeros.
Reduced MIP has 122 binaries, 160 generals, 0 SOSs, and 0 indicators.
Presolve time = 0.00 sec. (0.73 ticks)
Probing time = 0.00 sec. (0.05 ticks)
Clique table members: 12.
MIP emphasis: balance optimality and feasibility.
MIP search method: dynamic search.
Parallel mode: deterministic, using up to 4 threads.
Root relaxation solution time = 0.01 sec. (6.07 ticks)

        Nodes                                         Cuts/
   Node  Left     Objective  IInf  Best Integer    Best Bound    ItCnt     Gap

      0     0       31.3333    71                     31.3333      457         
      0     0       31.3333    71                    Cuts: 44      577         
      0     0       31.3100    71                    Cuts: 45      749         
      0     0       31.2948    71                    Cuts: 54      814         
      0     0       31.2636    71                    Cuts: 69      958         
      0     0       31.2330    71                    Cuts: 81     1031         
Detecting symmetries...
      0     0       31.2240    71                    Cuts: 71     1097         
      0     0       31.2022    71                    Cuts: 63     1168         
      0     0       31.1950    71                    Cuts: 47     1223         
      0     0       31.1866    71                    Cuts: 34     1288         
      0     0       31.1810    71                    Cuts: 52     1347         
      0     0       31.1765    71                    Cuts: 29     1404         
      0     0       31.1747    71                    Cuts: 40     1440         
*     0+    0                           29.0000       31.1747             7.50%
      0     0       31.1717    71       29.0000      Cuts: 31     1513    7.49%
      0     0       31.1664    71       29.0000      Cuts: 81     1615    7.47%
      0     0       31.1640    71       29.0000      Cuts: 52     1685    7.46%
*     0+    0                           30.0000       31.1640             3.88%
Detecting symmetries...
      0     2       31.1640   152       30.0000       31.0556     1685    3.52%
Elapsed time = 0.19 sec. (143.24 ticks, tree = 0.02 MB, solutions = 2)
     10     4        cutoff             30.0000       31.0556     2559    3.52%
     20     4        cutoff             30.0000       31.0556     3310    3.52%
the number of Nodes = 25
